c instance by G2
c solution = 1010101011010
c Known solution cost is 615 
p cnf 13 30
w 26 65 67 92 6 71 57 20 6 30 42 35 98
13 5 7 0
2 -8 -12 0
-8 12 -11 0
-6 13 -2 0
-12 3 -6 0
-1 10 12 0
11 -6 -3 0
-4 -5 -12 0
-8 -9 -6 0
-1 -13 -7 0
2 -3 -11 0
8 4 5 0
3 8 -10 0
10 1 -9 0
-2 8 4 0
-3 -6 10 0
-11 9 -1 0
-6 7 -4 0
2 -8 5 0
-13 2 12 0
12 -9 -10 0
6 7 -3 0
5 1 3 0
-1 -10 5 0
10 3 -12 0
-8 -1 -3 0
11 9 4 0
6 1 11 0
-9 8 10 0
-10 -2 -5 0
